
Gurobi 10.0.3 (linux64, gurobi_cl) logging started Fri Nov 10 19:53:33 2023

Set parameter Username
Set parameter TimeLimit to value 3600
Set parameter LogFile to value "RCPSP_1733.log"
Set parameter Threads to value 32
Academic license - for non-commercial use only - expires 2024-10-30
Using license file /home/jrivera6/gurobi-licenses/v1003/compute-0-37/gurobi.lic

Gurobi Optimizer version 10.0.3 build v10.0.3rc0 (linux64)
Copyright (c) 2023, Gurobi Optimization, LLC

Read MPS format model from file RCPSP_1733.mps
Reading time = 0.15 seconds
RCPSP_1733: 75251 rows, 29890 columns, 251666 nonzeros

CPU model: Intel(R) Xeon(R) Gold 6242 CPU @ 2.80GHz, instruction set [SSE2|AVX|AVX2|AVX512]
Thread count: 32 physical cores, 32 logical processors, using up to 32 threads

Optimize a model with 75251 rows, 29890 columns and 251666 nonzeros
Model fingerprint: 0x45dd3ae7
Variable types: 122 continuous, 29768 integer (29768 binary)
Coefficient statistics:
  Matrix range     [1e+00, 7e+02]
  Objective range  [1e+00, 1e+00]
  Bounds range     [1e+00, 1e+00]
  RHS range        [1e+00, 7e+02]
Presolve removed 11847 rows and 2272 columns (presolve time = 5s) ...
Presolve removed 11853 rows and 2274 columns
Presolve time: 5.23s
Presolved: 63398 rows, 27616 columns, 221619 nonzeros
Variable types: 121 continuous, 27495 integer (27495 binary)

Deterministic concurrent LP optimizer: primal and dual simplex (primal and dual model)
Showing first log only...

Root relaxation presolved: 63398 rows, 27616 columns, 221619 nonzeros


Root simplex log...

Iteration    Objective       Primal Inf.    Dual Inf.      Time
       0    1.0999267e+02   1.418071e-01   2.744824e+08      7s
    4066    1.0800000e+02   0.000000e+00   0.000000e+00      7s
Concurrent spin time: 2.14s

Solved with primal simplex (primal model)

Root relaxation: objective 1.080000e+02, 4066 iterations, 3.84 seconds (0.55 work units)
Total elapsed time = 10.82s

    Nodes    |    Current Node    |     Objective Bounds      |     Work
 Expl Unexpl |  Obj  Depth IntInf | Incumbent    BestBd   Gap | It/Node Time

     0     0  108.00000    0   28          -  108.00000      -     -   11s
     0     0  108.00000    0  212          -  108.00000      -     -   38s
     0     0  108.00000    0  266          -  108.00000      -     -   39s
     0     0  108.00000    0    4          -  108.00000      -     -   84s
     0     0  108.00000    0    6          -  108.00000      -     -  106s
     0     0  108.00000    0   18          -  108.00000      -     -  106s
     0     0  108.00000    0    6          -  108.00000      -     -  131s
     0     0  108.00000    0    8          -  108.00000      -     -  156s
H    0     0                     108.0000000  108.00000  0.00%     -  159s
     0     0  108.00000    0    2  108.00000  108.00000  0.00%     -  159s

Cutting planes:
  Gomory: 9
  Implied bound: 11
  MIR: 141
  RLT: 250
  Relax-and-lift: 9

Explored 1 nodes (18437 simplex iterations) in 161.09 seconds (14.03 work units)
Thread count was 32 (of 32 available processors)

Solution count 1: 108 

Optimal solution found (tolerance 1.00e-04)
Best objective 1.080000000000e+02, best bound 1.080000000000e+02, gap 0.0000%

Wrote result file 'RCPSP_1733.sol'

